Ordonnancement/plne/source/petit_instance/4job/4job_3.dat
data;
param nombreJob := 4;
param nombreRessource := 3;
param duree := 1 8 2 7 3 7 4 7;
param capaciteRessource := 1 8 2 10 3 19;
param besoinRessource : 1 2 3 :=
                    1   3 4 8
                    2   4 2 4
                    3   3 2 6
                    4   3 5 9;
end;

