Ordonnancement/plne/source/glpk_resultat/4job/4job_3.sol
Problem:    glpsolRcpsp
Rows:       316
Columns:    117 (116 integer, 116 binary)
Non-zeros:  2425
Status:     INTEGER OPTIMAL
Objective:  obj = 15 (MINimum)

   No.   Row name        Activity     Lower bound   Upper bound
------ ------------    ------------- ------------- -------------
     1 periode[1]                  8             8             = 
     2 periode[2]                  7             7             = 
     3 periode[3]                  7             7             = 
     4 periode[4]                  7             7             = 
     5 complet[1,1]                6                           8 
     6 complet[1,2]                5                           8 
     7 complet[1,3]                4                           8 
     8 complet[1,4]                3                           8 
     9 complet[1,5]                2                           8 
    10 complet[1,6]                1                           8 
    11 complet[1,7]                0                           8 
    12 complet[1,8]                8                           8 
    13 complet[1,9]                0                           8 
    14 complet[1,10]
                                   0                           8 
    15 complet[1,11]
                                   0                           8 
    16 complet[1,12]
                                   0                           8 
    17 complet[1,13]
                                   0                           8 
    18 complet[1,14]
                                   0                           8 
    19 complet[1,15]
                                   0                           8 
    20 complet[1,16]
                                   0                           8 
    21 complet[1,17]
                                   0                           8 
    22 complet[1,18]
                                   0                           8 
    23 complet[1,19]
                                   0                           8 
    24 complet[1,20]
                                   0                           8 
    25 complet[1,21]
                                   0                           8 
    26 complet[1,22]
                                   0                           8 
    27 complet[1,23]
                                   0                           8 
    28 complet[1,24]
                                   0                           8 
    29 complet[1,25]
                                   0                           8 
    30 complet[1,26]
                                   0                           8 
    31 complet[1,27]
                                   0                           8 
    32 complet[2,1]                5                           7 
    33 complet[2,2]                4                           7 
    34 complet[2,3]                3                           7 
    35 complet[2,4]                2                           7 
    36 complet[2,5]                1                           7 
    37 complet[2,6]                0                           7 
    38 complet[2,7]                7                           7 
    39 complet[2,8]                0                           7 
    40 complet[2,9]                0                           7 
    41 complet[2,10]
                                   0                           7 
    42 complet[2,11]
                                   0                           7 
    43 complet[2,12]
                                   0                           7 
    44 complet[2,13]
                                   0                           7 
    45 complet[2,14]
                                   0                           7 
    46 complet[2,15]
                                   0                           7 
    47 complet[2,16]
                                   0                           7 
    48 complet[2,17]
                                   0                           7 
    49 complet[2,18]
                                   0                           7 
    50 complet[2,19]
                                   0                           7 
    51 complet[2,20]
                                   0                           7 
    52 complet[2,21]
                                   0                           7 
    53 complet[2,22]
                                   0                           7 
    54 complet[2,23]
                                   0                           7 
    55 complet[2,24]
                                   0                           7 
    56 complet[2,25]
                                   0                           7 
    57 complet[2,26]
                                   0                           7 
    58 complet[2,27]
                                   0                           7 
    59 complet[3,1]                7                           7 
    60 complet[3,2]                7                           7 
    61 complet[3,3]                7                           7 
    62 complet[3,4]                7                           7 
    63 complet[3,5]                7                           7 
    64 complet[3,6]                7                           7 
    65 complet[3,7]               -1                           7 
    66 complet[3,8]                5                           7 
    67 complet[3,9]                4                           7 
    68 complet[3,10]
                                   3                           7 
    69 complet[3,11]
                                   2                           7 
    70 complet[3,12]
                                   1                           7 
    71 complet[3,13]
                                   0                           7 
    72 complet[3,14]
                                   7                           7 
    73 complet[3,15]
                                   0                           7 
    74 complet[3,16]
                                   0                           7 
    75 complet[3,17]
                                   0                           7 
    76 complet[3,18]
                                   0                           7 
    77 complet[3,19]
                                   0                           7 
    78 complet[3,20]
                                   0                           7 
    79 complet[3,21]
                                   0                           7 
    80 complet[3,22]
                                   0                           7 
    81 complet[3,23]
                                   0                           7 
    82 complet[3,24]
                                   0                           7 
    83 complet[3,25]
                                   0                           7 
    84 complet[3,26]
                                   0                           7 
    85 complet[3,27]
                                   0                           7 
    86 complet[4,1]                7                           7 
    87 complet[4,2]                7                           7 
    88 complet[4,3]                7                           7 
    89 complet[4,4]                7                           7 
    90 complet[4,5]                7                           7 
    91 complet[4,6]                7                           7 
    92 complet[4,7]                7                           7 
    93 complet[4,8]               -1                           7 
    94 complet[4,9]                5                           7 
    95 complet[4,10]
                                   4                           7 
    96 complet[4,11]
                                   3                           7 
    97 complet[4,12]
                                   2                           7 
    98 complet[4,13]
                                   1                           7 
    99 complet[4,14]
                                   0                           7 
   100 complet[4,15]
                                   7                           7 
   101 complet[4,16]
                                   0                           7 
   102 complet[4,17]
                                   0                           7 
   103 complet[4,18]
                                   0                           7 
   104 complet[4,19]
                                   0                           7 
   105 complet[4,20]
                                   0                           7 
   106 complet[4,21]
                                   0                           7 
   107 complet[4,22]
                                   0                           7 
   108 complet[4,23]
                                   0                           7 
   109 complet[4,24]
                                   0                           7 
   110 complet[4,25]
                                   0                           7 
   111 complet[4,26]
                                   0                           7 
   112 complet[4,27]
                                   0                           7 
   113 cmax[1,1]                  14            -0               
   114 cmax[1,2]                  13            -0               
   115 cmax[1,3]                  12            -0               
   116 cmax[1,4]                  11            -0               
   117 cmax[1,5]                  10            -0               
   118 cmax[1,6]                   9            -0               
   119 cmax[1,7]                   8            -0               
   120 cmax[1,8]                   7            -0               
   121 cmax[1,9]                  15            -0               
   122 cmax[1,10]                 15            -0               
   123 cmax[1,11]                 15            -0               
   124 cmax[1,12]                 15            -0               
   125 cmax[1,13]                 15            -0               
   126 cmax[1,14]                 15            -0               
   127 cmax[1,15]                 15            -0               
   128 cmax[1,16]                 15            -0               
   129 cmax[1,17]                 15            -0               
   130 cmax[1,18]                 15            -0               
   131 cmax[1,19]                 15            -0               
   132 cmax[1,20]                 15            -0               
   133 cmax[1,21]                 15            -0               
   134 cmax[1,22]                 15            -0               
   135 cmax[1,23]                 15            -0               
   136 cmax[1,24]                 15            -0               
   137 cmax[1,25]                 15            -0               
   138 cmax[1,26]                 15            -0               
   139 cmax[1,27]                 15            -0               
   140 cmax[1,28]                 15            -0               
   141 cmax[1,29]                 15            -0               
   142 cmax[2,1]                  14            -0               
   143 cmax[2,2]                  13            -0               
   144 cmax[2,3]                  12            -0               
   145 cmax[2,4]                  11            -0               
   146 cmax[2,5]                  10            -0               
   147 cmax[2,6]                   9            -0               
   148 cmax[2,7]                   8            -0               
   149 cmax[2,8]                  15            -0               
   150 cmax[2,9]                  15            -0               
   151 cmax[2,10]                 15            -0               
   152 cmax[2,11]                 15            -0               
   153 cmax[2,12]                 15            -0               
   154 cmax[2,13]                 15            -0               
   155 cmax[2,14]                 15            -0               
   156 cmax[2,15]                 15            -0               
   157 cmax[2,16]                 15            -0               
   158 cmax[2,17]                 15            -0               
   159 cmax[2,18]                 15            -0               
   160 cmax[2,19]                 15            -0               
   161 cmax[2,20]                 15            -0               
   162 cmax[2,21]                 15            -0               
   163 cmax[2,22]                 15            -0               
   164 cmax[2,23]                 15            -0               
   165 cmax[2,24]                 15            -0               
   166 cmax[2,25]                 15            -0               
   167 cmax[2,26]                 15            -0               
   168 cmax[2,27]                 15            -0               
   169 cmax[2,28]                 15            -0               
   170 cmax[2,29]                 15            -0               
   171 cmax[3,1]                  15            -0               
   172 cmax[3,2]                  15            -0               
   173 cmax[3,3]                  15            -0               
   174 cmax[3,4]                  15            -0               
   175 cmax[3,5]                  15            -0               
   176 cmax[3,6]                  15            -0               
   177 cmax[3,7]                  15            -0               
   178 cmax[3,8]                   7            -0               
   179 cmax[3,9]                   6            -0               
   180 cmax[3,10]                  5            -0               
   181 cmax[3,11]                  4            -0               
   182 cmax[3,12]                  3            -0               
   183 cmax[3,13]                  2            -0               
   184 cmax[3,14]                  1            -0               
   185 cmax[3,15]                 15            -0               
   186 cmax[3,16]                 15            -0               
   187 cmax[3,17]                 15            -0               
   188 cmax[3,18]                 15            -0               
   189 cmax[3,19]                 15            -0               
   190 cmax[3,20]                 15            -0               
   191 cmax[3,21]                 15            -0               
   192 cmax[3,22]                 15            -0               
   193 cmax[3,23]                 15            -0               
   194 cmax[3,24]                 15            -0               
   195 cmax[3,25]                 15            -0               
   196 cmax[3,26]                 15            -0               
   197 cmax[3,27]                 15            -0               
   198 cmax[3,28]                 15            -0               
   199 cmax[3,29]                 15            -0               
   200 cmax[4,1]                  15            -0               
   201 cmax[4,2]                  15            -0               
   202 cmax[4,3]                  15            -0               
   203 cmax[4,4]                  15            -0               
   204 cmax[4,5]                  15            -0               
   205 cmax[4,6]                  15            -0               
   206 cmax[4,7]                  15            -0               
   207 cmax[4,8]                  15            -0               
   208 cmax[4,9]                   6            -0               
   209 cmax[4,10]                  5            -0               
   210 cmax[4,11]                  4            -0               
   211 cmax[4,12]                  3            -0               
   212 cmax[4,13]                  2            -0               
   213 cmax[4,14]                  1            -0               
   214 cmax[4,15]                  0            -0               
   215 cmax[4,16]                 15            -0               
   216 cmax[4,17]                 15            -0               
   217 cmax[4,18]                 15            -0               
   218 cmax[4,19]                 15            -0               
   219 cmax[4,20]                 15            -0               
   220 cmax[4,21]                 15            -0               
   221 cmax[4,22]                 15            -0               
   222 cmax[4,23]                 15            -0               
   223 cmax[4,24]                 15            -0               
   224 cmax[4,25]                 15            -0               
   225 cmax[4,26]                 15            -0               
   226 cmax[4,27]                 15            -0               
   227 cmax[4,28]                 15            -0               
   228 cmax[4,29]                 15            -0               
   229 ressource[1,1]
                                   7                           8 
   230 ressource[1,2]
                                   7                           8 
   231 ressource[1,3]
                                   7                           8 
   232 ressource[1,4]
                                   7                           8 
   233 ressource[1,5]
                                   7                           8 
   234 ressource[1,6]
                                   7                           8 
   235 ressource[1,7]
                                   7                           8 
   236 ressource[1,8]
                                   6                           8 
   237 ressource[1,9]
                                   6                           8 
   238 ressource[1,10]
                                   6                           8 
   239 ressource[1,11]
                                   6                           8 
   240 ressource[1,12]
                                   6                           8 
   241 ressource[1,13]
                                   6                           8 
   242 ressource[1,14]
                                   6                           8 
   243 ressource[1,15]
                                   3                           8 
   244 ressource[1,16]
                                   0                           8 
   245 ressource[1,17]
                                   0                           8 
   246 ressource[1,18]
                                   0                           8 
   247 ressource[1,19]
                                   0                           8 
   248 ressource[1,20]
                                   0                           8 
   249 ressource[1,21]
                                   0                           8 
   250 ressource[1,22]
                                   0                           8 
   251 ressource[1,23]
                                   0                           8 
   252 ressource[1,24]
                                   0                           8 
   253 ressource[1,25]
                                   0                           8 
   254 ressource[1,26]
                                   0                           8 
   255 ressource[1,27]
                                   0                           8 
   256 ressource[1,28]
                                   0                           8 
   257 ressource[1,29]
                                   0                           8 
   258 ressource[2,1]
                                   6                          10 
   259 ressource[2,2]
                                   6                          10 
   260 ressource[2,3]
                                   6                          10 
   261 ressource[2,4]
                                   6                          10 
   262 ressource[2,5]
                                   6                          10 
   263 ressource[2,6]
                                   6                          10 
   264 ressource[2,7]
                                   6                          10 
   265 ressource[2,8]
                                   6                          10 
   266 ressource[2,9]
                                   7                          10 
   267 ressource[2,10]
                                   7                          10 
   268 ressource[2,11]
                                   7                          10 
   269 ressource[2,12]
                                   7                          10 
   270 ressource[2,13]
                                   7                          10 
   271 ressource[2,14]
                                   7                          10 
   272 ressource[2,15]
                                   5                          10 
   273 ressource[2,16]
                                   0                          10 
   274 ressource[2,17]
                                   0                          10 
   275 ressource[2,18]
                                   0                          10 
   276 ressource[2,19]
                                   0                          10 
   277 ressource[2,20]
                                   0                          10 
   278 ressource[2,21]
                                   0                          10 
   279 ressource[2,22]
                                   0                          10 
   280 ressource[2,23]
                                   0                          10 
   281 ressource[2,24]
                                   0                          10 
   282 ressource[2,25]
                                   0                          10 
   283 ressource[2,26]
                                   0                          10 
   284 ressource[2,27]
                                   0                          10 
   285 ressource[2,28]
                                   0                          10 
   286 ressource[2,29]
                                   0                          10 
   287 ressource[3,1]
                                  12                          19 
   288 ressource[3,2]
                                  12                          19 
   289 ressource[3,3]
                                  12                          19 
   290 ressource[3,4]
                                  12                          19 
   291 ressource[3,5]
                                  12                          19 
   292 ressource[3,6]
                                  12                          19 
   293 ressource[3,7]
                                  12                          19 
   294 ressource[3,8]
                                  14                          19 
   295 ressource[3,9]
                                  15                          19 
   296 ressource[3,10]
                                  15                          19 
   297 ressource[3,11]
                                  15                          19 
   298 ressource[3,12]
                                  15                          19 
   299 ressource[3,13]
                                  15                          19 
   300 ressource[3,14]
                                  15                          19 
   301 ressource[3,15]
                                   9                          19 
   302 ressource[3,16]
                                   0                          19 
   303 ressource[3,17]
                                   0                          19 
   304 ressource[3,18]
                                   0                          19 
   305 ressource[3,19]
                                   0                          19 
   306 ressource[3,20]
                                   0                          19 
   307 ressource[3,21]
                                   0                          19 
   308 ressource[3,22]
                                   0                          19 
   309 ressource[3,23]
                                   0                          19 
   310 ressource[3,24]
                                   0                          19 
   311 ressource[3,25]
                                   0                          19 
   312 ressource[3,26]
                                   0                          19 
   313 ressource[3,27]
                                   0                          19 
   314 ressource[3,28]
                                   0                          19 
   315 ressource[3,29]
                                   0                          19 
   316 obj                        15                             

   No. Column name       Activity     Lower bound   Upper bound
------ ------------    ------------- ------------- -------------
     1 x[1,1]       *              1             0             1 
     2 x[1,2]       *              1             0             1 
     3 x[1,3]       *              1             0             1 
     4 x[1,4]       *              1             0             1 
     5 x[1,5]       *              1             0             1 
     6 x[1,6]       *              1             0             1 
     7 x[1,7]       *              1             0             1 
     8 x[1,8]       *              1             0             1 
     9 x[1,9]       *              0             0             1 
    10 x[1,10]      *              0             0             1 
    11 x[1,11]      *              0             0             1 
    12 x[1,12]      *              0             0             1 
    13 x[1,13]      *              0             0             1 
    14 x[1,14]      *              0             0             1 
    15 x[1,15]      *              0             0             1 
    16 x[1,16]      *              0             0             1 
    17 x[1,17]      *              0             0             1 
    18 x[1,18]      *              0             0             1 
    19 x[1,19]      *              0             0             1 
    20 x[1,20]      *              0             0             1 
    21 x[1,21]      *              0             0             1 
    22 x[1,22]      *              0             0             1 
    23 x[1,23]      *              0             0             1 
    24 x[1,24]      *              0             0             1 
    25 x[1,25]      *              0             0             1 
    26 x[1,26]      *              0             0             1 
    27 x[1,27]      *              0             0             1 
    28 x[1,28]      *              0             0             1 
    29 x[1,29]      *              0             0             1 
    30 x[2,1]       *              1             0             1 
    31 x[2,2]       *              1             0             1 
    32 x[2,3]       *              1             0             1 
    33 x[2,4]       *              1             0             1 
    34 x[2,5]       *              1             0             1 
    35 x[2,6]       *              1             0             1 
    36 x[2,7]       *              1             0             1 
    37 x[2,8]       *              0             0             1 
    38 x[2,9]       *              0             0             1 
    39 x[2,10]      *              0             0             1 
    40 x[2,11]      *              0             0             1 
    41 x[2,12]      *              0             0             1 
    42 x[2,13]      *              0             0             1 
    43 x[2,14]      *              0             0             1 
    44 x[2,15]      *              0             0             1 
    45 x[2,16]      *              0             0             1 
    46 x[2,17]      *              0             0             1 
    47 x[2,18]      *              0             0             1 
    48 x[2,19]      *              0             0             1 
    49 x[2,20]      *              0             0             1 
    50 x[2,21]      *              0             0             1 
    51 x[2,22]      *              0             0             1 
    52 x[2,23]      *              0             0             1 
    53 x[2,24]      *              0             0             1 
    54 x[2,25]      *              0             0             1 
    55 x[2,26]      *              0             0             1 
    56 x[2,27]      *              0             0             1 
    57 x[2,28]      *              0             0             1 
    58 x[2,29]      *              0             0             1 
    59 x[3,1]       *              0             0             1 
    60 x[3,2]       *              0             0             1 
    61 x[3,3]       *              0             0             1 
    62 x[3,4]       *              0             0             1 
    63 x[3,5]       *              0             0             1 
    64 x[3,6]       *              0             0             1 
    65 x[3,7]       *              0             0             1 
    66 x[3,8]       *              1             0             1 
    67 x[3,9]       *              1             0             1 
    68 x[3,10]      *              1             0             1 
    69 x[3,11]      *              1             0             1 
    70 x[3,12]      *              1             0             1 
    71 x[3,13]      *              1             0             1 
    72 x[3,14]      *              1             0             1 
    73 x[3,15]      *              0             0             1 
    74 x[3,16]      *              0             0             1 
    75 x[3,17]      *              0             0             1 
    76 x[3,18]      *              0             0             1 
    77 x[3,19]      *              0             0             1 
    78 x[3,20]      *              0             0             1 
    79 x[3,21]      *              0             0             1 
    80 x[3,22]      *              0             0             1 
    81 x[3,23]      *              0             0             1 
    82 x[3,24]      *              0             0             1 
    83 x[3,25]      *              0             0             1 
    84 x[3,26]      *              0             0             1 
    85 x[3,27]      *              0             0             1 
    86 x[3,28]      *              0             0             1 
    87 x[3,29]      *              0             0             1 
    88 x[4,1]       *              0             0             1 
    89 x[4,2]       *              0             0             1 
    90 x[4,3]       *              0             0             1 
    91 x[4,4]       *              0             0             1 
    92 x[4,5]       *              0             0             1 
    93 x[4,6]       *              0             0             1 
    94 x[4,7]       *              0             0             1 
    95 x[4,8]       *              0             0             1 
    96 x[4,9]       *              1             0             1 
    97 x[4,10]      *              1             0             1 
    98 x[4,11]      *              1             0             1 
    99 x[4,12]      *              1             0             1 
   100 x[4,13]      *              1             0             1 
   101 x[4,14]      *              1             0             1 
   102 x[4,15]      *              1             0             1 
   103 x[4,16]      *              0             0             1 
   104 x[4,17]      *              0             0             1 
   105 x[4,18]      *              0             0             1 
   106 x[4,19]      *              0             0             1 
   107 x[4,20]      *              0             0             1 
   108 x[4,21]      *              0             0             1 
   109 x[4,22]      *              0             0             1 
   110 x[4,23]      *              0             0             1 
   111 x[4,24]      *              0             0             1 
   112 x[4,25]      *              0             0             1 
   113 x[4,26]      *              0             0             1 
   114 x[4,27]      *              0             0             1 
   115 x[4,28]      *              0             0             1 
   116 x[4,29]      *              0             0             1 
   117 z                          15                             

Integer feasibility conditions:

KKT.PE: max.abs.err = 0.00e+00 on row 0
        max.rel.err = 0.00e+00 on row 0
        High quality

KKT.PB: max.abs.err = 0.00e+00 on row 0
        max.rel.err = 0.00e+00 on row 0
        High quality

End of output
